30 3000
1 496
2 489
3 484
4 483
5 469
6 463
7 462
8 433
9 432
10 422
11 416
12 396
13 389
14 388
15 380
16 380
17 372
18 372
19 361
20 360
21 358
22 355
23 352
24 347
25 340
26 335
27 334
28 328
29 327
30 305
